#==========================#
#======= INCAR.BAND =======#
#==========================#

# +--------------------+
# | System Basic Info. |
# +--------------------+
SYSTEM      =  Band
ISTART      =  0
NCORE       =  4 
LSCALAPACK  =  .FALSE.

# +------------------+
# | Ionic Relaxation |
# +------------------+
IBRION  =  -1
ISIF    =  3
NSW     =  0

# +-----------------------+
# | Electronic Relaxation |
# +-----------------------+
ENCUT    =  380
PREC     =  Accurate
EDIFF    =  1.0E-7
ICHARG   =  11
ISYM     =  0
NELMIN   =  6
NELM     =  300
ISMEAR   =  0
SIGMA    =  0.05
LCHARG   =  .FALSE.
LWAVE    =  .FALSE.
LORBIT   =  11

# +--------------------------+
# | Colinear or Non-colinear |
# +--------------------------+
ISPIN          =  2
MAGMOM         =  5 5 0 0 0 0

# +----------------+
# | L(S)DA+U Calc. |
# +----------------+
LDAU       =  .TRUE.
LDAUTYPE   =  2
LDAUL      =  2 -1 -1
LDAUU      =  1.00 0.00 0.00
LDAUJ      =  0.00 0.00 0.00
LMAXMIX    =  4
LDAUPRINT  =  2

