#===========================#
#======= INCAR.RELAX =======#
#===========================#

# +--------------------+
# | System Basic Info. |
# +--------------------+
SYSTEM      =  Relax
ISTART      =  0
NCORE       =  4
LSCALAPACK  =  .FALSE.

# +------------------+
# | Ionic Relaxation |
# +------------------+
IBRION  =  2
ISIF    =  4
NSW     =  500
POTIM   =  0.1
EDIFFG  =  -1E-3

# +-----------------------+
# | Electronic Relaxation |
# +-----------------------+
ENCUT    =  380
PREC     =  Normal
EDIFF    =  1.0E-6  
ICHARG   =  2
ISYM     =  0
NELMIN   =  6
NELM     =  300
ISMEAR   =  0
SIGMA    =  0.05
LCHARG   =  .FALSE.
LWAVE    =  .FALSE.
LORBIT   =  11

# +--------------------------+
# | Colinear or Non-colinear |
# +--------------------------+
#LMAXMIX        =  4
# >> Colinear <<
ISPIN          =  2    # '1', non spin polarized; '2', spin polarized.
MAGMOM         =  5 5 0 0 0 0
# >> Non-colinear <<
#ISPIN          =  1    # '1', non spin polarized; '2', spin polarized.
#GGA_COMPAT     =  .FALSE.
#LNONCOLLINEAR  =  .TRUE.
#LSORBIT        =  .TRUE.
#MAGMOM         =  0 0 5 0 0 5 12*0
#SAXIS          =  0.0 0.0 1.0

# +----------------+
# | L(S)DA+U Calc. |
# +----------------+
LDAU       =  .TRUE.
LDAUTYPE   =  2
LDAUL      =  2 -1 -1
LDAUU      =  1.00 0.00 0.00
LDAUJ      =  0.00 0.00 0.00
LMAXMIX    =  4
LDAUPRINT  =  2

