Auto.Mesh.Kpts
0             
Monkhorst-Pack
19   19   1
0.0  0.0  0.0 
