Auto.Mesh.Kpts
0             
Monkhorst-Pack
13   13   1
0.0  0.0  0.0 