Primitive Cell
  1.000000
    3.65451520269479    0.00000000000000    0.00000000000000
    0.00000000000000    3.65451520269479    0.00000000000000
    0.00000000000000    0.00000000000000   20.63124765779245
  Fe  Se  Li
   2   2   2
DIRECT
    0.0000000000000000    0.0000000000000000    0.5000000000000000    Fe1
    0.5000000000000000    0.5000000000000000    0.5000000000000000    Fe2
    0.0000000000000000    0.5000000000000000    0.4141028877441426    Se1
    0.5000000000000000    0.0000000000000000    0.5858971122558574    Se2
    0.0000000000000000    0.5000000000000000    0.6052929810139247    Li1
    0.5000000000000000    0.0000000000000000    0.3947070189860754    Li2
