#=========================#
#======= INCAR.SSC =======#
#=========================#

# +--------------------+
# | System Basic Info. |
# +--------------------+
SYSTEM      =  Static
ISTART      =  0
NCORE       =  4
LSCALAPACK  =  .FALSE.

# +------------------+
# | Ionic Relaxation |
# +------------------+
IBRION  =  -1
ISIF    =  3
NSW     = 0
POTIM   =  0.1
EDIFFG  =  -1E-3

# +-----------------------+
# | Electronic Relaxation |
# +-----------------------+
ENCUT    =  500
PREC     =  Accurate
EDIFF    =  1.0E-8
ICHARG   =  2
ISYM     =  2
NELMIN   =  6 
NELM     =  300
ISMEAR   =  0 
SIGMA    =  0.05
LCHARG   =  .TRUE. 
LWAVE    =  .TRUE. 
LORBIT   =  11

# +--------------------------+
# | Colinear or Non-colinear |
# +--------------------------+
ISPIN          =  2 
MAGMOM         =  0 0
