#==========================#
#======= INCAR.BAND =======#
#==========================#

# +--------------------+
# | System Basic Info. |
# +--------------------+
SYSTEM      =  Band
ISTART      =  0  
NCORE       =  4
LSCALAPACK  =  .FALSE.

# +------------------+
# | Ionic Relaxation |
# +------------------+
IBRION  =  -1  
ISIF    =  3
NSW     =  0
POTIM   =  0.1
EDIFFG  =  -1E-3

# +-----------------------+
# | Electronic Relaxation |
# +-----------------------+
ENCUT    =  500
PREC     =  Accurate
EDIFF    =  1.0E-8
ICHARG   =  11
ISYM     =  2
NELMIN   =  6
NELM     =  300
ISMEAR   =  0
SIGMA    =  0.05
LCHARG   =  .FALSE.
LWAVE    =  .FALSE. 
LORBIT   =  11
NBANDS   =  20

# +--------------------------+
# | Colinear or Non-colinear |
# +--------------------------+
ISPIN          =  2 
MAGMOM         =  0 0
