SYSTEM = MBT
ENCUT  = 350
ISTART = 0  !  0-new  1-cont  2-samecut
ICHARG = 11  !  1-file 2-atom 10-const
#INIWAV = 1  !  0-lowe 1-rand  2-diag
ISYM   = -1  !  0-nonsym 1-usesym 2-fastsym
#SYMPREC =1e-4
ISMEAR = -5 
#ISMEAR = 0  ! -5 semiconductor and insulator or cal DOS
#SIGMA  = 0.05

IBRION = -1 ! -1 no-update 0 MD 1 quasiNewton 2 CG
POTIM  = 0.5
ISIF   = 3
ADDGRID = .TRUE.
PSTRESS = 0

PREC   = Accurate  ! Low | Medium | High | Normal | Accurate | Single
NSW    = 0         ! ionic relaxation NSW=0 for static calculation
EDIFFG = -5.0E-04 
NELM   = 60
EDIFF  = 1.0E-06
NELMIN = 4   ! for MD or ionic relaxation 4 to 8
#NELMDL = -5   ! ``+'' each ionic movement, ``-'' the start-configuration

ALGO   = Normal ! Normal | VeryFast | Fast | All | Damped
GGA    = PE
#VOSKOWN = 1 ! this is important, in particular for PW91

LREAL  = .FALSE. ! .FALSE., .TRUE., On or O, Auto or A
LASPH  = .TRUE.  ! f-elements, all 3d-elements, and magnetic atoms in the 2nd row

LORBIT = 11
NEDOS = 2001
#NGX = 84 ; NGY = 84 ; NGZ = 84 

LWAVE  = .FALSE.
LCHARG = .FALSE.

AMIX = 0.2
AMIX_MAG = 0.8
BMIX = 0.0001
BMIX_MAG = 0.0001

####collinear 
#ISPIN  = 2  !  1-non spin polarized 2-spin polarized
#LMAXMIX =  4 
#GGA_COMPAT = .FALSE.
#MAGMOM = 12*0 5 5

####noncollinear
#ISPIN  = 1  !  1-non spin polarized 2-spin polarized
#LMAXMIX =  4
GGA_COMPAT = .FALSE.
LNONCOLLINEAR = .TRUE.
LSORBIT = .TRUE.
#SAXIS = 0.0 0.0 1.0
MAGMOM = 36*0 0 0 5 0 0 -5
NBANDS = 144

####compute
#NPAR   = 4 
NCORE = 4
LSCALAPACK = .FALSE.

####wannier90
#LWANNIER90 = .TRUE.
#LWRITE_MMN_AMN=.TRUE.
#LWANNIER90_RUN = .TRUE.

#####HSE
#LHFCALC  = .TRUE.
#HFSCREEN = 0.2
#ALGO     = Damped
#TIME     = 0.4
#PRECFOCK = Fast ! used PRECFOCK = Normal for high quality calculations
#NKRED    = 2 ! omit flag for high quality calculations
#NKREDX   = 2
#NKREDY   = 2
#NKREDZ   = 2
#AEXX     = 0.25
#ALDAC    = 1.0
#AGGAX    = 0.75 ! 1.0 - AEXX
#AGGAC    = 1.0

####L(S)DA+U
LDAU      = .TRUE.
LDAUTYPE  = 2
LDAUL     = -1 -1 2
LDAUU     = 0.00 0.00 4.00
LDAUJ     = 0.00 0.00 0.00
LDAUPRINT = 2
LMAXMIX   = 4

#####vdw
IVDW = 11
#VDW_S6 = 1.000
#VDW_S8 = 0.4679
#VDW_A1 = 0.7875
#VDW_A2 = 4.4407

