KPOINTS path
60
line
reciprocal
 0.000000 0.000000 0.00000 !G
 0.000000 0.000000 0.50000 !Z

 0.000000 0.000000 0.50000 !Z
 0.000000 0.500000 0.00000 !F
 
 0.000000 0.500000 0.00000 !F
 0.000000 0.000000 0.00000 !G

 0.000000 0.000000 0.00000 !G
 0.000000 0.500000 -0.5000 !L
