K-Mesh Generated with KP-Resolved Value (Low=0.08~0.05, Medium=0.04~0.03, Fine=0.02~0.01): 0.040
0
Gamma
   7   7   3
0.0  0.0  0.0
