SC112 file generated by VASPKIT
 1.000000
    4.3635439872999999    0.0000000000000000    0.0000000000000000
    2.1817719936000000    3.7789399435000002    0.0000000000000000
   -4.3635430801000004   -2.5192927719000000   27.0544087936999986
   Bi   Te   Mn
    4    8    2
Direct
    0.5768100020000000    0.5768100020000000    0.1152150030000000     Bi1
    0.5768100020000000    0.5768100020000000    0.6152150030000000     Bi2
    0.4231899980000000    0.4231899980000000    0.3847849970000000     Bi3
    0.4231899980000000    0.4231899980000000    0.8847849970000000     Bi4
    0.8675899510000000    0.8675900100000000    0.0513849850000000     Te1
    0.8675899510000000    0.8675900100000000    0.5513849850000000     Te2
    0.1324100490000000    0.1324100050000000    0.4486150289999999     Te3
    0.1324100490000000    0.1324100050000000    0.9486150289999999     Te4
    0.7051399950000000    0.7051399950000000    0.3077099919999999     Te5
    0.7051399950000000    0.7051399950000000    0.8077099919999999     Te6
    0.2948600050000000    0.2948600050000000    0.1922900080000001     Te7
    0.2948600050000000    0.2948600050000000    0.6922900080000001     Te8
    0.0000000000000000    0.0000000000000000    0.2500000000000000     Mn1
    0.0000000000000000    0.0000000000000000    0.7500000000000000     Mn2
