Primitive Cell
  1.000000
    2.46803021431624    0.00000000000000    0.00000000000000
   -1.23401510715812    2.13737686290542    0.00000000000000
    0.00000000000000    0.00000000000000   20.00000000000000
  C 
   2
DIRECT
    0.6666666666666666    0.3333333333333333    0.5000000000000000     C1
    0.3333333333333334    0.6666666666666667    0.5000000000000000     C2
