#===========================#
#======= INCAR.RELAX =======#
#===========================#

# +--------------------+
# | System Basic Info. |
# +--------------------+
SYSTEM      =  Relax
ISTART      =  0
NCORE       =  4
LSCALAPACK  =  .FALSE.

# +------------------+
# | Ionic Relaxation |
# +------------------+
IBRION  =  2
ISIF    =  4
NSW     =  200
POTIM   =  0.1
EDIFFG  =  -1E-3

# +-----------------------+
# | Electronic Relaxation |
# +-----------------------+
ENCUT    =  440
PREC     =  Normal
EDIFF    =  1.0E-6  
ICHARG   =  2
ISYM     =  -1
NELMIN   =  6
NELM     =  300
ISMEAR   =  0
SIGMA    =  0.05
LCHARG   =  .FALSE.
LWAVE    =  .FALSE.
LORBIT   =  11

# +--------------------------+
# | Colinear or Non-colinear |
# +--------------------------+
ISPIN          =  2  
MAGMOM         =  5 5 0 0 0 0

# +----------------+
# | L(S)DA+U Calc. |
# +----------------+
LMAXMIX  =  4
METAGGA  =  SCAN
