#=========================#
#======= INCAR.SSC =======#
#=========================#

# +--------------------+
# | System Basic Info. |
# +--------------------+
SYSTEM      =  SSC
ISTART      =  0
NCORE       =  4
LSCALAPACK  =  .FALSE.

# +------------------+
# | Ionic Relaxation |
# +------------------+
IBRION  =  -1
NSW     =  0
EDIFFG  =  -1E-3

# +-----------------------+
# | Electronic Relaxation |
# +-----------------------+
ENCUT    =  400
PREC     =  Accurate
EDIFF    =  1.0E-6
ICHARG   =  2
ISYM     =  -1
NELMIN   =  6 
NELM     =  200
ISMEAR   =  0 
SIGMA    =  0.05
LCHARG   =  .TRUE. 
LWAVE    =  .TRUE. 
LORBIT   =  11

# +--------------------------+
# | Colinear or Non-colinear |
# +--------------------------+
GGA_COMPAT     =  .FALSE.
LNONCOLLINEAR  =  .TRUE.
LSORBIT        =  .TRUE.
MAGMOM         =  0 0 5 0 0 5 12*0
SAXIS          =  0.0 0.0 1.0

# +----------------+
# | L(S)DA+U Calc. |
# +----------------+
LMAXMIX  =  4 
METAGGA  =  SCAN
