Fe2Se2Li2 Final Version (2019.11.26)    
   1.00000000000000     
     3.6545152026947920    0.0000000000000000    0.0000000000000000
    -0.0000000000000000    3.6545152026947920    0.0000000000000000
    -0.0000000000000000    0.0000000000000000   20.6312476577924500
   Fe   Se   Li
     2     2     2
Direct
  0.0000000000000000  0.0000000000000000  0.5000000000000000
  0.5000000000000000  0.5000000000000000  0.5000000000000000
  0.0000000000000000  0.5000000000000000  0.4141028877441433
  0.5000000000000000  0.0000000000000000  0.5858970642558524
  0.0000000000000000  0.5000000000000000  0.6052929810139280
  0.5000000000000000  0.0000000000000000  0.3947070189860719
 
  0.00000000E+00  0.00000000E+00  0.00000000E+00
  0.00000000E+00  0.00000000E+00  0.00000000E+00
  0.00000000E+00  0.00000000E+00  0.00000000E+00
  0.00000000E+00  0.00000000E+00  0.00000000E+00
  0.00000000E+00  0.00000000E+00  0.00000000E+00
  0.00000000E+00  0.00000000E+00  0.00000000E+00
